NAME: I19058-n29-k6
COMMENT : (Fake et al, No of trucks: 6, Optimal value: )
TYPE : CVRP
DIMENSION : 29
EDGE_WEIGHT_TYPE : EUC_2D
CAPACITY : 20
NODE_COORD_SECTION
1 264 403
2 354 209
3 923 683
4 285 339
5 676 738
6 937 87
7 933 833
8 680 970
9 908 740
10 303 349
11 486 648
12 438 291
13 318 780
14 734 795
15 560 198
16 459 258
17 656 658
18 0 349
19 463 680
20 32 144
21 895 454
22 887 1000
23 309 116
24 648 279
25 609 869
26 941 670
27 789 819
28 682 982
29 31 712
DEMAND_SECTION
1 0
2 6
3 5
4 1
5 1
6 5
7 2
8 6
9 3
10 6
11 3
12 6
13 6
14 1
15 4
16 2
17 5
18 2
19 1
20 4
21 5
22 6
23 2
24 4
25 1
26 4
27 3
28 4
29 2
DEPOT_SECTION
 1
 -1
 EOF 